35
75
60	1
58	1
54	1
53	1
52	3
51	2
50	2
49	1
48	1
47	2
46	2
45	1
44	1
43	2
41	1
40	1
39	1
36	4
35	1
32	2
30	2
29	2
28	1
27	1
26	1
24	1
23	1
22	1
21	1
18	1
17	1
13	2
12	1
9	1
7	2
